c description: Random 3-CNF over 22 variables and 94 clauses
c generator: CNFgen (0.9.2)
c copyright: (C) 2012-2022 Massimo Lauria <massimo.lauria@uniroma1.it>
c url: https://massimolauria.net/cnfgen
c command line: cnfgen --output CNF_4.28/22_bit_94_821.cnf randkcnf 3 22 94
c
p cnf 22 94
-17 19 -20 0
1 7 -17 0
11 -14 -19 0
3 -10 21 0
11 16 18 0
-11 -20 21 0
1 20 22 0
-1 -20 22 0
-1 -5 -15 0
-6 -7 -15 0
-13 14 19 0
-2 -7 -16 0
8 17 20 0
1 -2 16 0
3 8 -17 0
4 18 -19 0
-2 -14 20 0
1 -5 13 0
-8 11 16 0
-6 13 -22 0
-8 14 17 0
-16 17 -21 0
5 6 -7 0
8 9 -17 0
-1 -5 21 0
6 20 -21 0
-5 -10 -12 0
-1 8 10 0
14 16 22 0
5 11 -21 0
8 11 -16 0
9 13 20 0
-14 -16 21 0
-13 16 -20 0
3 12 14 0
9 -13 18 0
-8 15 -17 0
4 -17 -21 0
-1 8 13 0
4 13 20 0
1 -2 12 0
6 13 -21 0
1 -6 -10 0
-5 -9 -11 0
-3 -6 -14 0
2 5 7 0
-1 -2 -10 0
-14 -18 20 0
1 9 -19 0
-3 20 22 0
-1 8 -19 0
-3 4 21 0
-6 8 11 0
-12 13 14 0
-12 19 21 0
-7 14 18 0
18 20 -21 0
-2 -6 -9 0
2 -4 -20 0
-6 7 19 0
-1 -7 -8 0
-12 16 22 0
-3 -12 19 0
-6 9 -13 0
14 19 -20 0
-3 -17 -20 0
-8 11 17 0
-2 11 14 0
-5 17 -21 0
5 8 19 0
-10 12 -17 0
-11 -13 18 0
8 15 -21 0
-8 9 -19 0
-8 -18 -20 0
9 -10 -14 0
-2 10 -15 0
3 17 20 0
-5 -6 7 0
6 -13 18 0
2 -8 -20 0
2 -14 -15 0
16 18 -22 0
13 -14 19 0
-2 12 -18 0
-5 -11 -13 0
-13 16 -22 0
2 19 20 0
16 17 -19 0
-11 14 22 0
3 7 21 0
-12 17 19 0
1 -5 22 0
7 12 18 0
